c
c This is glucose 2.1 --  based on MiniSAT (Many thanks to MiniSAT team)
c
c WARNING: for repeatability, setting FPU to use double precision
c ========================================[ Problem Statistics ]===========================================
c |                                                                                                       |
c |  Number of variables:        380969                                                                   |
c |  Number of clauses:          925430                                                                   |
c |  Parse time:                   0.30 s                                                                 |
c |                                                                                                       |
c ========================================[ MAGIC CONSTANTS ]==============================================
c | Constants are supposed to work well together :-)                                                      |
c | however, if you find better choices, please let us known...                                           |
c |-------------------------------------------------------------------------------------------------------|
c |                                |                                |                                     |
c | - Restarts:                    | - Reduce Clause DB:            | - Minimize Asserting:               |
c |   * LBD Queue    :     50      |   * First     :   4000         |    * size <  30                     |
c |   * Trail  Queue :   5000      |   * Inc       :    300         |    * lbd  <   6                     |
c |   * K            :   0.80      |   * Special   :   1000         |                                     |
c |   * R            :   1.40      |   * Protected :  (lbd)< 30     |                                     |
c |                                |                                |                                     |
c ==================================[ Search Statistics (every  10000 conflicts) ]=========================
c |                                                                                                       |
c |          RESTARTS           |          ORIGINAL         |              LEARNT              | Progress |
c |       NB   Blocked  Avg Cfc |    Vars  Clauses Literals |   Red   Learnts    LBD2  Removed |          |
c =========================================================================================================
c |       54         0      185 |  216967   908626  2035122 |     1     8010      245     1988 | 43.049 % |
c |      121         0      165 |  216967   908626  2035122 |     3     6996      480    13002 | 43.049 % |
c |      197         0      152 |  216967   908626  2035122 |     3    16996      727    13002 | 43.049 % |
c |      284         0      140 |  216967   908626  2035122 |     4    17703      945    22295 | 43.049 % |
c |      380         0      131 |  216967   908626  2035122 |     5    15929     1127    34069 | 43.049 % |
c |      469         0      127 |  216963   908622  2035110 |     5    25923     1347    34069 | 43.050 % |
c |      580         0      120 |  216963   908622  2035110 |     6    21908     1547    48084 | 43.050 % |
c |      711         0      112 |  216963   908622  2035110 |     6    31908     1722    48084 | 43.050 % |
c |      808         0      111 |  216963   908622  2035110 |     7    25464     1884    64528 | 43.050 % |
c |      927         0      107 |  216963   908622  2035110 |     7    35464     2005    64528 | 43.050 % |
c |     1043         0      105 |  216959   908618  2035098 |     8    26703     2121    83273 | 43.051 % |
c |     1154         0      103 |  216959   908618  2035098 |     8    36703     2246    83273 | 43.051 % |
c |     1253         0      103 |  216959   908618  2035098 |     9    25102     2337   104874 | 43.051 % |
c |     1345         0      104 |  216959   908618  2035098 |     9    35102     2448   104874 | 43.051 % |
c |     1449         0      103 |  216942   908603  2035053 |     9    45090     2597   104874 | 43.055 % |
c |     1554         0      102 |  216942   908603  2035053 |    10    30880     2710   129084 | 43.055 % |
c |     1673         0      101 |  216930   908591  2035017 |    10    40870     2822   129084 | 43.058 % |
c |     1793         0      100 |  216925   908588  2035008 |    10    50867     2904   129084 | 43.060 % |
c |     1901         0       99 |  216895   908562  2034930 |    11    33799     2997   156116 | 43.068 % |
c |     1988         1      100 |  216895   908562  2034930 |    11    43799     3085   156116 | 43.068 % |
c |     2086         2      100 |  216873   908544  2034876 |    11    53784     3207   156116 | 43.073 % |
c |     2171         3      101 |  216811   908490  2034714 |    12    34770     3324   185070 | 43.090 % |
c |     2244        16      102 |  216697   908402  2034450 |    12    44694     3515   185070 | 43.120 % |
c |     2319        21      103 |  216613   908326  2034222 |    12    54571     3681   185070 | 43.142 % |
c |     2383        29      104 |  216409   908152  2033700 |    12    64285     3885   185070 | 43.195 % |
c |     2428        38      107 |  216265   908032  2033340 |    13    42980     4030   216045 | 43.233 % |
c |     2482        42      108 |  215929   907798  2032638 |    13    52544     4341   216045 | 43.321 % |
c =========================================================================================================
c restarts              : 2499 (111 conflicts in avg)
c blocked restarts      : 45 (multiple: 30) 
c last block at restart : 2487
c nb ReduceDB           : 13
c nb removed Clauses    : 216045
c nb learnts DL2        : 4919
c nb learnts size 2     : 2294
c nb learnts size 1     : 397
c conflicts             : 278766         (812 /sec)
c decisions             : 2143194        (0.00 % random) (6244 /sec)
c propagations          : 1449998543     (4224280 /sec)
c conflict literals     : 12965282       (20.51 % deleted)
c nb reduced Clauses    : 5736
c CPU time              : 343.253 s
s UNSATISFIABLE
